id: 486
name: tp-6
group: meszaros/New
method: 2

Gurobi 7.0.2 (linux64, Matlab) logging started Thu Apr 12 17:39:46 2018


Gurobi 7.0.2 (linux64) logging started Thu Apr 12 17:39:46 2018

Optimize a model with 142752 rows, 1014301 columns and 11537419 nonzeros
Coefficient statistics:
  Matrix range     [5e-01, 5e+00]
  Objective range  [5e-01, 2e+00]
  Bounds range     [0e+00, 0e+00]
  RHS range        [7e-15, 1e+07]
Presolve removed 0 rows and 0 columns (presolve time = 5s) ...
Presolve removed 0 rows and 0 columns (presolve time = 11s) ...
Presolve time: 14.36s
Presolved: 142752 rows, 1014301 columns, 11537419 nonzeros

Elapsed ordering time = 5s
Ordering time: 5.99s

Barrier statistics:
 AA' NZ     : 3.958e+06
 Factor NZ  : 2.956e+07 (roughly 700 MBytes of memory)
 Factor Ops : 9.813e+10 (roughly 1 second per iteration)
 Threads    : 4

                  Objective                Residual
Iter       Primal          Dual         Primal    Dual     Compl     Time
   0   1.55607559e+06  1.38975860e+05  1.51e+07 7.06e+00  6.74e+02    23s
   1  -1.39471846e+06 -3.14218368e+07  4.73e+06 5.27e+00  2.36e+02    24s
   2  -2.01806246e+06 -3.08201132e+07  1.74e+05 1.02e+00  3.96e+01    25s
   3  -4.21261777e+06 -1.73227292e+07  1.29e+04 4.03e-01  1.56e+01    27s
   4  -6.40191136e+06 -1.48652696e+07  3.99e+03 2.94e-01  1.03e+01    28s
   5  -7.36807532e+06 -1.39528639e+07  2.81e+03 2.45e-01  8.10e+00    30s
   6  -7.52553130e+06 -1.36161014e+07  2.68e+03 2.24e-01  7.48e+00    31s
   7  -8.23449760e+06 -1.34840494e+07  2.20e+03 2.02e-01  6.55e+00    33s
   8  -9.06872769e+06 -1.34137337e+07  1.80e+03 1.52e-01  5.36e+00    34s
   9  -1.10327510e+07 -1.33123536e+07  9.43e+02 1.20e-01  3.18e+00    35s
  10  -1.17489254e+07 -1.32521381e+07  6.40e+02 7.74e-02  2.11e+00    37s
  11  -1.20917113e+07 -1.32460967e+07  4.83e+02 3.32e-02  1.41e+00    38s
  12  -1.27451719e+07 -1.32264559e+07  1.80e+02 2.06e-02  6.49e-01    39s
  13  -1.29781970e+07 -1.32120777e+07  8.26e+01 1.13e-02  3.27e-01    40s
  14  -1.30656122e+07 -1.32058951e+07  4.78e+01 6.88e-03  1.97e-01    41s
  15  -1.31336079e+07 -1.32017539e+07  2.17e+01 4.10e-03  1.02e-01    42s
  16  -1.31681116e+07 -1.31983339e+07  8.83e+00 2.12e-03  4.80e-02    43s
  17  -1.31887438e+07 -1.31963511e+07  1.57e+00 8.17e-04  1.45e-02    45s
  18  -1.31931527e+07 -1.31951191e+07  3.11e-01 1.74e-04  3.42e-03    46s
  19  -1.31943096e+07 -1.31947783e+07  5.80e-02 3.99e-05  8.03e-04    47s
  20  -1.31945708e+07 -1.31946869e+07  1.10e-02 1.01e-05  2.00e-04    49s
  21  -1.31946273e+07 -1.31946595e+07  2.53e-03 1.89e-06  4.79e-05    50s
  22  -1.31946434e+07 -1.31946539e+07  8.08e-04 4.64e-07  1.43e-05    51s
  23  -1.31946500e+07 -1.31946522e+07  1.40e-04 7.11e-08  2.79e-06    52s
  24  -1.31946517e+07 -1.31946519e+07  1.25e-05 3.84e-09  2.58e-07    54s
  25  -1.31946519e+07 -1.31946519e+07  1.11e-06 8.33e-11  1.62e-08    55s
  26  -1.31946519e+07 -1.31946519e+07  1.29e-05 1.23e-12  4.74e-10    56s

Barrier solved model in 26 iterations and 56.31 seconds
Optimal objective -1.31946519e+07

Crossover log...

      10 DPushes remaining with DInf 0.0000000e+00                64s
       0 DPushes remaining with DInf 0.0000000e+00                66s
Warning: Markowitz tolerance tightened to 0.5

     113 PPushes remaining with PInf 0.0000000e+00                66s
       0 PPushes remaining with PInf 0.0000000e+00                68s

  Push phase complete: Pinf 0.0000000e+00, Dinf 2.9825133e-10     68s

Iteration    Objective       Primal Inf.    Dual Inf.      Time
     126   -1.3194652e+07   0.000000e+00   0.000000e+00     76s
     126   -1.3194652e+07   0.000000e+00   0.000000e+00     80s

Solved in 126 iterations and 80.33 seconds
Optimal objective -1.319465190e+07
status: OPTIMAL
